21
1 0 32
2 0 9
2 1 2
3 0 19
3 1 5
3 2 22
4 0 16
4 1 31
4 2 29
4 3 27
5 0 9
5 1 12
5 2 13
5 3 1
5 4 32
6 0 31
6 1 1
6 2 24
6 3 18
6 4 29
6 5 30
7 0 14
7 1 16
7 2 4
7 3 1
7 4 12
7 5 27
7 6 15
8 0 7
8 1 10
8 2 8
8 3 16
8 4 10
8 5 18
8 6 5
8 7 5
9 0 22
9 1 7
9 2 27
9 3 19
9 4 12
9 5 13
9 6 2
9 7 31
9 8 10
10 0 17
10 1 19
10 2 6
10 3 24
10 4 3
10 5 7
10 6 18
10 7 16
10 8 28
10 9 1
11 0 9
11 1 9
11 2 31
11 3 8
11 4 2
11 5 16
11 6 14
11 7 33
11 8 23
11 9 11
11 10 10
12 0 27
12 1 15
12 2 27
12 3 9
12 4 29
12 5 5
12 6 7
12 7 5
12 8 28
12 9 20
12 10 14
12 11 14
13 0 24
13 1 32
13 2 8
13 3 31
13 4 28
13 5 11
13 6 17
13 7 25
13 8 7
13 9 32
13 10 19
13 11 22
13 12 19
14 0 32
14 1 19
14 2 33
14 3 31
14 4 8
14 5 15
14 6 29
14 7 28
14 8 24
14 9 26
14 10 13
14 11 1
14 12 6
14 13 31
15 0 1
15 1 15
15 2 2
15 3 20
15 4 11
15 5 9
15 6 4
15 7 13
15 8 28
15 9 15
15 10 10
15 11 26
15 12 28
15 13 28
15 14 13
16 0 13
16 1 24
16 2 14
16 3 23
16 4 22
16 5 2
16 6 6
16 7 33
16 8 8
16 9 15
16 10 1
16 11 14
16 12 29
16 13 12
16 14 16
16 15 24
17 0 7
17 1 31
17 2 29
17 3 7
17 4 6
17 5 20
17 6 24
17 7 24
17 8 30
17 9 5
17 10 12
17 11 29
17 12 27
17 13 33
17 14 28
17 15 23
17 16 28
18 0 3
18 1 25
18 2 11
18 3 30
18 4 9
18 5 20
18 6 15
18 7 30
18 8 31
18 9 24
18 10 25
18 11 21
18 12 3
18 13 31
18 14 6
18 15 33
18 16 10
18 17 21
19 0 4
19 1 3
19 2 3
19 3 14
19 4 29
19 5 24
19 6 26
19 7 12
19 8 26
19 9 3
19 10 2
19 11 18
19 12 24
19 13 4
19 14 9
19 15 6
19 16 16
19 17 29
19 18 20
20 0 6
20 1 18
20 2 13
20 3 26
20 4 28
20 5 21
20 6 9
20 7 10
20 8 20
20 9 3
20 10 32
20 11 6
20 12 30
20 13 21
20 14 6
20 15 32
20 16 31
20 17 18
20 18 8
20 19 4
